NAME : graph24
COMMENT : H Algorithm Solution by Oscar Riveros [http://twitter.com/maxtuno]
TYPE : TOUR
DIMENSION : 198
TOUR_SECTION
126
143
155
9
67
138
108
66
16
161
33
135
128
175
5
96
92
65
90
148
36
13
52
30
44
71
99
159
134
1
39
136
91
110
166
124
74
169
183
94
2
89
83
85
162
139
68
87
21
184
116
42
149
127
131
185
57
144
193
107
79
133
59
54
35
196
34
32
12
117
115
29
46
38
192
43
7
41
190
97
125
170
69
188
80
51
174
10
106
28
93
119
176
70
164
171
118
167
88
198
105
17
152
140
145
156
114
8
153
98
64
191
84
86
45
102
76
182
197
23
179
73
25
122
137
121
189
37
53
14
6
62
132
103
20
58
27
141
111
177
63
168
4
151
26
75
194
186
49
195
60
130
50
22
24
19
81
3
187
31
142
158
154
113
40
56
150
123
172
178
109
15
95
11
129
163
104
72
101
78
55
180
157
47
181
48
100
82
147
120
112
18
77
160
165
61
173
146
-1
EOF
